c *********************************
c * Circuit generated by BenCGen
c *
c * CarrySkipAdder_106_106_106_InOut_G4T
c *
c * Ports with 1 gate(s): 29
c * Ports with 2 gate(s): 586
c * Ports with 4 gate(s): 26
c * Total gates: 641
c *********************************
p cnf 853 2158
1 321 0
-1 -321 0
1 -320 0
321 -320 0
-1 -321 320 0
1 107 -324 0
-1 107 324 0
1 -107 324 0
-1 -107 -324 0
324 320 -213 0
-324 320 213 0
324 -320 213 0
-324 -320 -213 0
320 -325 0
324 -325 0
-320 -324 325 0
107 -326 0
1 -326 0
-107 -1 326 0
-325 323 0
-326 323 0
325 326 -323 0
2 108 -328 0
-2 108 328 0
2 -108 328 0
-2 -108 -328 0
328 323 -214 0
-328 323 214 0
328 -323 214 0
-328 -323 -214 0
323 -329 0
328 -329 0
-323 -328 329 0
108 -330 0
2 -330 0
-108 -2 330 0
-329 327 0
-330 327 0
329 330 -327 0
3 109 -332 0
-3 109 332 0
3 -109 332 0
-3 -109 -332 0
332 327 -215 0
-332 327 215 0
332 -327 215 0
-332 -327 -215 0
327 -333 0
332 -333 0
-327 -332 333 0
109 -334 0
3 -334 0
-109 -3 334 0
-333 331 0
-334 331 0
333 334 -331 0
4 110 -335 0
-4 110 335 0
4 -110 335 0
-4 -110 -335 0
335 331 -216 0
-335 331 216 0
335 -331 216 0
-335 -331 -216 0
331 -336 0
335 -336 0
-331 -335 336 0
110 -337 0
4 -337 0
-110 -4 337 0
-336 322 0
-337 322 0
336 337 -322 0
324 -338 0
328 -338 0
332 -338 0
335 -338 0
-324 -328 -332 -335 338 0
337 -339 0
-337 339 0
320 -340 0
338 -340 0
-320 -338 340 0
-340 341 0
-322 341 0
340 322 -341 0
5 111 -344 0
-5 111 344 0
5 -111 344 0
-5 -111 -344 0
344 341 -217 0
-344 341 217 0
344 -341 217 0
-344 -341 -217 0
341 -345 0
344 -345 0
-341 -344 345 0
111 -346 0
5 -346 0
-111 -5 346 0
-345 343 0
-346 343 0
345 346 -343 0
6 112 -348 0
-6 112 348 0
6 -112 348 0
-6 -112 -348 0
348 343 -218 0
-348 343 218 0
348 -343 218 0
-348 -343 -218 0
343 -349 0
348 -349 0
-343 -348 349 0
112 -350 0
6 -350 0
-112 -6 350 0
-349 347 0
-350 347 0
349 350 -347 0
7 113 -352 0
-7 113 352 0
7 -113 352 0
-7 -113 -352 0
352 347 -219 0
-352 347 219 0
352 -347 219 0
-352 -347 -219 0
347 -353 0
352 -353 0
-347 -352 353 0
113 -354 0
7 -354 0
-113 -7 354 0
-353 351 0
-354 351 0
353 354 -351 0
8 114 -355 0
-8 114 355 0
8 -114 355 0
-8 -114 -355 0
355 351 -220 0
-355 351 220 0
355 -351 220 0
-355 -351 -220 0
351 -356 0
355 -356 0
-351 -355 356 0
114 -357 0
8 -357 0
-114 -8 357 0
-356 342 0
-357 342 0
356 357 -342 0
344 -358 0
348 -358 0
352 -358 0
355 -358 0
-344 -348 -352 -355 358 0
357 -359 0
-357 359 0
341 -360 0
358 -360 0
-341 -358 360 0
-360 361 0
-342 361 0
360 342 -361 0
9 115 -364 0
-9 115 364 0
9 -115 364 0
-9 -115 -364 0
364 361 -221 0
-364 361 221 0
364 -361 221 0
-364 -361 -221 0
361 -365 0
364 -365 0
-361 -364 365 0
115 -366 0
9 -366 0
-115 -9 366 0
-365 363 0
-366 363 0
365 366 -363 0
10 116 -368 0
-10 116 368 0
10 -116 368 0
-10 -116 -368 0
368 363 -222 0
-368 363 222 0
368 -363 222 0
-368 -363 -222 0
363 -369 0
368 -369 0
-363 -368 369 0
116 -370 0
10 -370 0
-116 -10 370 0
-369 367 0
-370 367 0
369 370 -367 0
11 117 -372 0
-11 117 372 0
11 -117 372 0
-11 -117 -372 0
372 367 -223 0
-372 367 223 0
372 -367 223 0
-372 -367 -223 0
367 -373 0
372 -373 0
-367 -372 373 0
117 -374 0
11 -374 0
-117 -11 374 0
-373 371 0
-374 371 0
373 374 -371 0
12 118 -375 0
-12 118 375 0
12 -118 375 0
-12 -118 -375 0
375 371 -224 0
-375 371 224 0
375 -371 224 0
-375 -371 -224 0
371 -376 0
375 -376 0
-371 -375 376 0
118 -377 0
12 -377 0
-118 -12 377 0
-376 362 0
-377 362 0
376 377 -362 0
364 -378 0
368 -378 0
372 -378 0
375 -378 0
-364 -368 -372 -375 378 0
377 -379 0
-377 379 0
361 -380 0
378 -380 0
-361 -378 380 0
-380 381 0
-362 381 0
380 362 -381 0
13 119 -384 0
-13 119 384 0
13 -119 384 0
-13 -119 -384 0
384 381 -225 0
-384 381 225 0
384 -381 225 0
-384 -381 -225 0
381 -385 0
384 -385 0
-381 -384 385 0
119 -386 0
13 -386 0
-119 -13 386 0
-385 383 0
-386 383 0
385 386 -383 0
14 120 -388 0
-14 120 388 0
14 -120 388 0
-14 -120 -388 0
388 383 -226 0
-388 383 226 0
388 -383 226 0
-388 -383 -226 0
383 -389 0
388 -389 0
-383 -388 389 0
120 -390 0
14 -390 0
-120 -14 390 0
-389 387 0
-390 387 0
389 390 -387 0
15 121 -392 0
-15 121 392 0
15 -121 392 0
-15 -121 -392 0
392 387 -227 0
-392 387 227 0
392 -387 227 0
-392 -387 -227 0
387 -393 0
392 -393 0
-387 -392 393 0
121 -394 0
15 -394 0
-121 -15 394 0
-393 391 0
-394 391 0
393 394 -391 0
16 122 -395 0
-16 122 395 0
16 -122 395 0
-16 -122 -395 0
395 391 -228 0
-395 391 228 0
395 -391 228 0
-395 -391 -228 0
391 -396 0
395 -396 0
-391 -395 396 0
122 -397 0
16 -397 0
-122 -16 397 0
-396 382 0
-397 382 0
396 397 -382 0
384 -398 0
388 -398 0
392 -398 0
395 -398 0
-384 -388 -392 -395 398 0
397 -399 0
-397 399 0
381 -400 0
398 -400 0
-381 -398 400 0
-400 401 0
-382 401 0
400 382 -401 0
17 123 -404 0
-17 123 404 0
17 -123 404 0
-17 -123 -404 0
404 401 -229 0
-404 401 229 0
404 -401 229 0
-404 -401 -229 0
401 -405 0
404 -405 0
-401 -404 405 0
123 -406 0
17 -406 0
-123 -17 406 0
-405 403 0
-406 403 0
405 406 -403 0
18 124 -408 0
-18 124 408 0
18 -124 408 0
-18 -124 -408 0
408 403 -230 0
-408 403 230 0
408 -403 230 0
-408 -403 -230 0
403 -409 0
408 -409 0
-403 -408 409 0
124 -410 0
18 -410 0
-124 -18 410 0
-409 407 0
-410 407 0
409 410 -407 0
19 125 -412 0
-19 125 412 0
19 -125 412 0
-19 -125 -412 0
412 407 -231 0
-412 407 231 0
412 -407 231 0
-412 -407 -231 0
407 -413 0
412 -413 0
-407 -412 413 0
125 -414 0
19 -414 0
-125 -19 414 0
-413 411 0
-414 411 0
413 414 -411 0
20 126 -415 0
-20 126 415 0
20 -126 415 0
-20 -126 -415 0
415 411 -232 0
-415 411 232 0
415 -411 232 0
-415 -411 -232 0
411 -416 0
415 -416 0
-411 -415 416 0
126 -417 0
20 -417 0
-126 -20 417 0
-416 402 0
-417 402 0
416 417 -402 0
404 -418 0
408 -418 0
412 -418 0
415 -418 0
-404 -408 -412 -415 418 0
417 -419 0
-417 419 0
401 -420 0
418 -420 0
-401 -418 420 0
-420 421 0
-402 421 0
420 402 -421 0
21 127 -424 0
-21 127 424 0
21 -127 424 0
-21 -127 -424 0
424 421 -233 0
-424 421 233 0
424 -421 233 0
-424 -421 -233 0
421 -425 0
424 -425 0
-421 -424 425 0
127 -426 0
21 -426 0
-127 -21 426 0
-425 423 0
-426 423 0
425 426 -423 0
22 128 -428 0
-22 128 428 0
22 -128 428 0
-22 -128 -428 0
428 423 -234 0
-428 423 234 0
428 -423 234 0
-428 -423 -234 0
423 -429 0
428 -429 0
-423 -428 429 0
128 -430 0
22 -430 0
-128 -22 430 0
-429 427 0
-430 427 0
429 430 -427 0
23 129 -432 0
-23 129 432 0
23 -129 432 0
-23 -129 -432 0
432 427 -235 0
-432 427 235 0
432 -427 235 0
-432 -427 -235 0
427 -433 0
432 -433 0
-427 -432 433 0
129 -434 0
23 -434 0
-129 -23 434 0
-433 431 0
-434 431 0
433 434 -431 0
24 130 -435 0
-24 130 435 0
24 -130 435 0
-24 -130 -435 0
435 431 -236 0
-435 431 236 0
435 -431 236 0
-435 -431 -236 0
431 -436 0
435 -436 0
-431 -435 436 0
130 -437 0
24 -437 0
-130 -24 437 0
-436 422 0
-437 422 0
436 437 -422 0
424 -438 0
428 -438 0
432 -438 0
435 -438 0
-424 -428 -432 -435 438 0
437 -439 0
-437 439 0
421 -440 0
438 -440 0
-421 -438 440 0
-440 441 0
-422 441 0
440 422 -441 0
25 131 -444 0
-25 131 444 0
25 -131 444 0
-25 -131 -444 0
444 441 -237 0
-444 441 237 0
444 -441 237 0
-444 -441 -237 0
441 -445 0
444 -445 0
-441 -444 445 0
131 -446 0
25 -446 0
-131 -25 446 0
-445 443 0
-446 443 0
445 446 -443 0
26 132 -448 0
-26 132 448 0
26 -132 448 0
-26 -132 -448 0
448 443 -238 0
-448 443 238 0
448 -443 238 0
-448 -443 -238 0
443 -449 0
448 -449 0
-443 -448 449 0
132 -450 0
26 -450 0
-132 -26 450 0
-449 447 0
-450 447 0
449 450 -447 0
27 133 -452 0
-27 133 452 0
27 -133 452 0
-27 -133 -452 0
452 447 -239 0
-452 447 239 0
452 -447 239 0
-452 -447 -239 0
447 -453 0
452 -453 0
-447 -452 453 0
133 -454 0
27 -454 0
-133 -27 454 0
-453 451 0
-454 451 0
453 454 -451 0
28 134 -455 0
-28 134 455 0
28 -134 455 0
-28 -134 -455 0
455 451 -240 0
-455 451 240 0
455 -451 240 0
-455 -451 -240 0
451 -456 0
455 -456 0
-451 -455 456 0
134 -457 0
28 -457 0
-134 -28 457 0
-456 442 0
-457 442 0
456 457 -442 0
444 -458 0
448 -458 0
452 -458 0
455 -458 0
-444 -448 -452 -455 458 0
457 -459 0
-457 459 0
441 -460 0
458 -460 0
-441 -458 460 0
-460 461 0
-442 461 0
460 442 -461 0
29 135 -464 0
-29 135 464 0
29 -135 464 0
-29 -135 -464 0
464 461 -241 0
-464 461 241 0
464 -461 241 0
-464 -461 -241 0
461 -465 0
464 -465 0
-461 -464 465 0
135 -466 0
29 -466 0
-135 -29 466 0
-465 463 0
-466 463 0
465 466 -463 0
30 136 -468 0
-30 136 468 0
30 -136 468 0
-30 -136 -468 0
468 463 -242 0
-468 463 242 0
468 -463 242 0
-468 -463 -242 0
463 -469 0
468 -469 0
-463 -468 469 0
136 -470 0
30 -470 0
-136 -30 470 0
-469 467 0
-470 467 0
469 470 -467 0
31 137 -472 0
-31 137 472 0
31 -137 472 0
-31 -137 -472 0
472 467 -243 0
-472 467 243 0
472 -467 243 0
-472 -467 -243 0
467 -473 0
472 -473 0
-467 -472 473 0
137 -474 0
31 -474 0
-137 -31 474 0
-473 471 0
-474 471 0
473 474 -471 0
32 138 -475 0
-32 138 475 0
32 -138 475 0
-32 -138 -475 0
475 471 -244 0
-475 471 244 0
475 -471 244 0
-475 -471 -244 0
471 -476 0
475 -476 0
-471 -475 476 0
138 -477 0
32 -477 0
-138 -32 477 0
-476 462 0
-477 462 0
476 477 -462 0
464 -478 0
468 -478 0
472 -478 0
475 -478 0
-464 -468 -472 -475 478 0
477 -479 0
-477 479 0
461 -480 0
478 -480 0
-461 -478 480 0
-480 481 0
-462 481 0
480 462 -481 0
33 139 -484 0
-33 139 484 0
33 -139 484 0
-33 -139 -484 0
484 481 -245 0
-484 481 245 0
484 -481 245 0
-484 -481 -245 0
481 -485 0
484 -485 0
-481 -484 485 0
139 -486 0
33 -486 0
-139 -33 486 0
-485 483 0
-486 483 0
485 486 -483 0
34 140 -488 0
-34 140 488 0
34 -140 488 0
-34 -140 -488 0
488 483 -246 0
-488 483 246 0
488 -483 246 0
-488 -483 -246 0
483 -489 0
488 -489 0
-483 -488 489 0
140 -490 0
34 -490 0
-140 -34 490 0
-489 487 0
-490 487 0
489 490 -487 0
35 141 -492 0
-35 141 492 0
35 -141 492 0
-35 -141 -492 0
492 487 -247 0
-492 487 247 0
492 -487 247 0
-492 -487 -247 0
487 -493 0
492 -493 0
-487 -492 493 0
141 -494 0
35 -494 0
-141 -35 494 0
-493 491 0
-494 491 0
493 494 -491 0
36 142 -495 0
-36 142 495 0
36 -142 495 0
-36 -142 -495 0
495 491 -248 0
-495 491 248 0
495 -491 248 0
-495 -491 -248 0
491 -496 0
495 -496 0
-491 -495 496 0
142 -497 0
36 -497 0
-142 -36 497 0
-496 482 0
-497 482 0
496 497 -482 0
484 -498 0
488 -498 0
492 -498 0
495 -498 0
-484 -488 -492 -495 498 0
497 -499 0
-497 499 0
481 -500 0
498 -500 0
-481 -498 500 0
-500 501 0
-482 501 0
500 482 -501 0
37 143 -504 0
-37 143 504 0
37 -143 504 0
-37 -143 -504 0
504 501 -249 0
-504 501 249 0
504 -501 249 0
-504 -501 -249 0
501 -505 0
504 -505 0
-501 -504 505 0
143 -506 0
37 -506 0
-143 -37 506 0
-505 503 0
-506 503 0
505 506 -503 0
38 144 -508 0
-38 144 508 0
38 -144 508 0
-38 -144 -508 0
508 503 -250 0
-508 503 250 0
508 -503 250 0
-508 -503 -250 0
503 -509 0
508 -509 0
-503 -508 509 0
144 -510 0
38 -510 0
-144 -38 510 0
-509 507 0
-510 507 0
509 510 -507 0
39 145 -512 0
-39 145 512 0
39 -145 512 0
-39 -145 -512 0
512 507 -251 0
-512 507 251 0
512 -507 251 0
-512 -507 -251 0
507 -513 0
512 -513 0
-507 -512 513 0
145 -514 0
39 -514 0
-145 -39 514 0
-513 511 0
-514 511 0
513 514 -511 0
40 146 -515 0
-40 146 515 0
40 -146 515 0
-40 -146 -515 0
515 511 -252 0
-515 511 252 0
515 -511 252 0
-515 -511 -252 0
511 -516 0
515 -516 0
-511 -515 516 0
146 -517 0
40 -517 0
-146 -40 517 0
-516 502 0
-517 502 0
516 517 -502 0
504 -518 0
508 -518 0
512 -518 0
515 -518 0
-504 -508 -512 -515 518 0
517 -519 0
-517 519 0
501 -520 0
518 -520 0
-501 -518 520 0
-520 521 0
-502 521 0
520 502 -521 0
41 147 -524 0
-41 147 524 0
41 -147 524 0
-41 -147 -524 0
524 521 -253 0
-524 521 253 0
524 -521 253 0
-524 -521 -253 0
521 -525 0
524 -525 0
-521 -524 525 0
147 -526 0
41 -526 0
-147 -41 526 0
-525 523 0
-526 523 0
525 526 -523 0
42 148 -528 0
-42 148 528 0
42 -148 528 0
-42 -148 -528 0
528 523 -254 0
-528 523 254 0
528 -523 254 0
-528 -523 -254 0
523 -529 0
528 -529 0
-523 -528 529 0
148 -530 0
42 -530 0
-148 -42 530 0
-529 527 0
-530 527 0
529 530 -527 0
43 149 -532 0
-43 149 532 0
43 -149 532 0
-43 -149 -532 0
532 527 -255 0
-532 527 255 0
532 -527 255 0
-532 -527 -255 0
527 -533 0
532 -533 0
-527 -532 533 0
149 -534 0
43 -534 0
-149 -43 534 0
-533 531 0
-534 531 0
533 534 -531 0
44 150 -535 0
-44 150 535 0
44 -150 535 0
-44 -150 -535 0
535 531 -256 0
-535 531 256 0
535 -531 256 0
-535 -531 -256 0
531 -536 0
535 -536 0
-531 -535 536 0
150 -537 0
44 -537 0
-150 -44 537 0
-536 522 0
-537 522 0
536 537 -522 0
524 -538 0
528 -538 0
532 -538 0
535 -538 0
-524 -528 -532 -535 538 0
537 -539 0
-537 539 0
521 -540 0
538 -540 0
-521 -538 540 0
-540 541 0
-522 541 0
540 522 -541 0
45 151 -544 0
-45 151 544 0
45 -151 544 0
-45 -151 -544 0
544 541 -257 0
-544 541 257 0
544 -541 257 0
-544 -541 -257 0
541 -545 0
544 -545 0
-541 -544 545 0
151 -546 0
45 -546 0
-151 -45 546 0
-545 543 0
-546 543 0
545 546 -543 0
46 152 -548 0
-46 152 548 0
46 -152 548 0
-46 -152 -548 0
548 543 -258 0
-548 543 258 0
548 -543 258 0
-548 -543 -258 0
543 -549 0
548 -549 0
-543 -548 549 0
152 -550 0
46 -550 0
-152 -46 550 0
-549 547 0
-550 547 0
549 550 -547 0
47 153 -552 0
-47 153 552 0
47 -153 552 0
-47 -153 -552 0
552 547 -259 0
-552 547 259 0
552 -547 259 0
-552 -547 -259 0
547 -553 0
552 -553 0
-547 -552 553 0
153 -554 0
47 -554 0
-153 -47 554 0
-553 551 0
-554 551 0
553 554 -551 0
48 154 -555 0
-48 154 555 0
48 -154 555 0
-48 -154 -555 0
555 551 -260 0
-555 551 260 0
555 -551 260 0
-555 -551 -260 0
551 -556 0
555 -556 0
-551 -555 556 0
154 -557 0
48 -557 0
-154 -48 557 0
-556 542 0
-557 542 0
556 557 -542 0
544 -558 0
548 -558 0
552 -558 0
555 -558 0
-544 -548 -552 -555 558 0
557 -559 0
-557 559 0
541 -560 0
558 -560 0
-541 -558 560 0
-560 561 0
-542 561 0
560 542 -561 0
49 155 -564 0
-49 155 564 0
49 -155 564 0
-49 -155 -564 0
564 561 -261 0
-564 561 261 0
564 -561 261 0
-564 -561 -261 0
561 -565 0
564 -565 0
-561 -564 565 0
155 -566 0
49 -566 0
-155 -49 566 0
-565 563 0
-566 563 0
565 566 -563 0
50 156 -568 0
-50 156 568 0
50 -156 568 0
-50 -156 -568 0
568 563 -262 0
-568 563 262 0
568 -563 262 0
-568 -563 -262 0
563 -569 0
568 -569 0
-563 -568 569 0
156 -570 0
50 -570 0
-156 -50 570 0
-569 567 0
-570 567 0
569 570 -567 0
51 157 -572 0
-51 157 572 0
51 -157 572 0
-51 -157 -572 0
572 567 -263 0
-572 567 263 0
572 -567 263 0
-572 -567 -263 0
567 -573 0
572 -573 0
-567 -572 573 0
157 -574 0
51 -574 0
-157 -51 574 0
-573 571 0
-574 571 0
573 574 -571 0
52 158 -575 0
-52 158 575 0
52 -158 575 0
-52 -158 -575 0
575 571 -264 0
-575 571 264 0
575 -571 264 0
-575 -571 -264 0
571 -576 0
575 -576 0
-571 -575 576 0
158 -577 0
52 -577 0
-158 -52 577 0
-576 562 0
-577 562 0
576 577 -562 0
564 -578 0
568 -578 0
572 -578 0
575 -578 0
-564 -568 -572 -575 578 0
577 -579 0
-577 579 0
561 -580 0
578 -580 0
-561 -578 580 0
-580 581 0
-562 581 0
580 562 -581 0
53 159 -584 0
-53 159 584 0
53 -159 584 0
-53 -159 -584 0
584 581 -265 0
-584 581 265 0
584 -581 265 0
-584 -581 -265 0
581 -585 0
584 -585 0
-581 -584 585 0
159 -586 0
53 -586 0
-159 -53 586 0
-585 583 0
-586 583 0
585 586 -583 0
54 160 -588 0
-54 160 588 0
54 -160 588 0
-54 -160 -588 0
588 583 -266 0
-588 583 266 0
588 -583 266 0
-588 -583 -266 0
583 -589 0
588 -589 0
-583 -588 589 0
160 -590 0
54 -590 0
-160 -54 590 0
-589 587 0
-590 587 0
589 590 -587 0
55 161 -592 0
-55 161 592 0
55 -161 592 0
-55 -161 -592 0
592 587 -267 0
-592 587 267 0
592 -587 267 0
-592 -587 -267 0
587 -593 0
592 -593 0
-587 -592 593 0
161 -594 0
55 -594 0
-161 -55 594 0
-593 591 0
-594 591 0
593 594 -591 0
56 162 -595 0
-56 162 595 0
56 -162 595 0
-56 -162 -595 0
595 591 -268 0
-595 591 268 0
595 -591 268 0
-595 -591 -268 0
591 -596 0
595 -596 0
-591 -595 596 0
162 -597 0
56 -597 0
-162 -56 597 0
-596 582 0
-597 582 0
596 597 -582 0
584 -598 0
588 -598 0
592 -598 0
595 -598 0
-584 -588 -592 -595 598 0
597 -599 0
-597 599 0
581 -600 0
598 -600 0
-581 -598 600 0
-600 601 0
-582 601 0
600 582 -601 0
57 163 -604 0
-57 163 604 0
57 -163 604 0
-57 -163 -604 0
604 601 -269 0
-604 601 269 0
604 -601 269 0
-604 -601 -269 0
601 -605 0
604 -605 0
-601 -604 605 0
163 -606 0
57 -606 0
-163 -57 606 0
-605 603 0
-606 603 0
605 606 -603 0
58 164 -608 0
-58 164 608 0
58 -164 608 0
-58 -164 -608 0
608 603 -270 0
-608 603 270 0
608 -603 270 0
-608 -603 -270 0
603 -609 0
608 -609 0
-603 -608 609 0
164 -610 0
58 -610 0
-164 -58 610 0
-609 607 0
-610 607 0
609 610 -607 0
59 165 -612 0
-59 165 612 0
59 -165 612 0
-59 -165 -612 0
612 607 -271 0
-612 607 271 0
612 -607 271 0
-612 -607 -271 0
607 -613 0
612 -613 0
-607 -612 613 0
165 -614 0
59 -614 0
-165 -59 614 0
-613 611 0
-614 611 0
613 614 -611 0
60 166 -615 0
-60 166 615 0
60 -166 615 0
-60 -166 -615 0
615 611 -272 0
-615 611 272 0
615 -611 272 0
-615 -611 -272 0
611 -616 0
615 -616 0
-611 -615 616 0
166 -617 0
60 -617 0
-166 -60 617 0
-616 602 0
-617 602 0
616 617 -602 0
604 -618 0
608 -618 0
612 -618 0
615 -618 0
-604 -608 -612 -615 618 0
617 -619 0
-617 619 0
601 -620 0
618 -620 0
-601 -618 620 0
-620 621 0
-602 621 0
620 602 -621 0
61 167 -624 0
-61 167 624 0
61 -167 624 0
-61 -167 -624 0
624 621 -273 0
-624 621 273 0
624 -621 273 0
-624 -621 -273 0
621 -625 0
624 -625 0
-621 -624 625 0
167 -626 0
61 -626 0
-167 -61 626 0
-625 623 0
-626 623 0
625 626 -623 0
62 168 -628 0
-62 168 628 0
62 -168 628 0
-62 -168 -628 0
628 623 -274 0
-628 623 274 0
628 -623 274 0
-628 -623 -274 0
623 -629 0
628 -629 0
-623 -628 629 0
168 -630 0
62 -630 0
-168 -62 630 0
-629 627 0
-630 627 0
629 630 -627 0
63 169 -632 0
-63 169 632 0
63 -169 632 0
-63 -169 -632 0
632 627 -275 0
-632 627 275 0
632 -627 275 0
-632 -627 -275 0
627 -633 0
632 -633 0
-627 -632 633 0
169 -634 0
63 -634 0
-169 -63 634 0
-633 631 0
-634 631 0
633 634 -631 0
64 170 -635 0
-64 170 635 0
64 -170 635 0
-64 -170 -635 0
635 631 -276 0
-635 631 276 0
635 -631 276 0
-635 -631 -276 0
631 -636 0
635 -636 0
-631 -635 636 0
170 -637 0
64 -637 0
-170 -64 637 0
-636 622 0
-637 622 0
636 637 -622 0
624 -638 0
628 -638 0
632 -638 0
635 -638 0
-624 -628 -632 -635 638 0
637 -639 0
-637 639 0
621 -640 0
638 -640 0
-621 -638 640 0
-640 641 0
-622 641 0
640 622 -641 0
65 171 -644 0
-65 171 644 0
65 -171 644 0
-65 -171 -644 0
644 641 -277 0
-644 641 277 0
644 -641 277 0
-644 -641 -277 0
641 -645 0
644 -645 0
-641 -644 645 0
171 -646 0
65 -646 0
-171 -65 646 0
-645 643 0
-646 643 0
645 646 -643 0
66 172 -648 0
-66 172 648 0
66 -172 648 0
-66 -172 -648 0
648 643 -278 0
-648 643 278 0
648 -643 278 0
-648 -643 -278 0
643 -649 0
648 -649 0
-643 -648 649 0
172 -650 0
66 -650 0
-172 -66 650 0
-649 647 0
-650 647 0
649 650 -647 0
67 173 -652 0
-67 173 652 0
67 -173 652 0
-67 -173 -652 0
652 647 -279 0
-652 647 279 0
652 -647 279 0
-652 -647 -279 0
647 -653 0
652 -653 0
-647 -652 653 0
173 -654 0
67 -654 0
-173 -67 654 0
-653 651 0
-654 651 0
653 654 -651 0
68 174 -655 0
-68 174 655 0
68 -174 655 0
-68 -174 -655 0
655 651 -280 0
-655 651 280 0
655 -651 280 0
-655 -651 -280 0
651 -656 0
655 -656 0
-651 -655 656 0
174 -657 0
68 -657 0
-174 -68 657 0
-656 642 0
-657 642 0
656 657 -642 0
644 -658 0
648 -658 0
652 -658 0
655 -658 0
-644 -648 -652 -655 658 0
657 -659 0
-657 659 0
641 -660 0
658 -660 0
-641 -658 660 0
-660 661 0
-642 661 0
660 642 -661 0
69 175 -664 0
-69 175 664 0
69 -175 664 0
-69 -175 -664 0
664 661 -281 0
-664 661 281 0
664 -661 281 0
-664 -661 -281 0
661 -665 0
664 -665 0
-661 -664 665 0
175 -666 0
69 -666 0
-175 -69 666 0
-665 663 0
-666 663 0
665 666 -663 0
70 176 -668 0
-70 176 668 0
70 -176 668 0
-70 -176 -668 0
668 663 -282 0
-668 663 282 0
668 -663 282 0
-668 -663 -282 0
663 -669 0
668 -669 0
-663 -668 669 0
176 -670 0
70 -670 0
-176 -70 670 0
-669 667 0
-670 667 0
669 670 -667 0
71 177 -672 0
-71 177 672 0
71 -177 672 0
-71 -177 -672 0
672 667 -283 0
-672 667 283 0
672 -667 283 0
-672 -667 -283 0
667 -673 0
672 -673 0
-667 -672 673 0
177 -674 0
71 -674 0
-177 -71 674 0
-673 671 0
-674 671 0
673 674 -671 0
72 178 -675 0
-72 178 675 0
72 -178 675 0
-72 -178 -675 0
675 671 -284 0
-675 671 284 0
675 -671 284 0
-675 -671 -284 0
671 -676 0
675 -676 0
-671 -675 676 0
178 -677 0
72 -677 0
-178 -72 677 0
-676 662 0
-677 662 0
676 677 -662 0
664 -678 0
668 -678 0
672 -678 0
675 -678 0
-664 -668 -672 -675 678 0
677 -679 0
-677 679 0
661 -680 0
678 -680 0
-661 -678 680 0
-680 681 0
-662 681 0
680 662 -681 0
73 179 -684 0
-73 179 684 0
73 -179 684 0
-73 -179 -684 0
684 681 -285 0
-684 681 285 0
684 -681 285 0
-684 -681 -285 0
681 -685 0
684 -685 0
-681 -684 685 0
179 -686 0
73 -686 0
-179 -73 686 0
-685 683 0
-686 683 0
685 686 -683 0
74 180 -688 0
-74 180 688 0
74 -180 688 0
-74 -180 -688 0
688 683 -286 0
-688 683 286 0
688 -683 286 0
-688 -683 -286 0
683 -689 0
688 -689 0
-683 -688 689 0
180 -690 0
74 -690 0
-180 -74 690 0
-689 687 0
-690 687 0
689 690 -687 0
75 181 -692 0
-75 181 692 0
75 -181 692 0
-75 -181 -692 0
692 687 -287 0
-692 687 287 0
692 -687 287 0
-692 -687 -287 0
687 -693 0
692 -693 0
-687 -692 693 0
181 -694 0
75 -694 0
-181 -75 694 0
-693 691 0
-694 691 0
693 694 -691 0
76 182 -695 0
-76 182 695 0
76 -182 695 0
-76 -182 -695 0
695 691 -288 0
-695 691 288 0
695 -691 288 0
-695 -691 -288 0
691 -696 0
695 -696 0
-691 -695 696 0
182 -697 0
76 -697 0
-182 -76 697 0
-696 682 0
-697 682 0
696 697 -682 0
684 -698 0
688 -698 0
692 -698 0
695 -698 0
-684 -688 -692 -695 698 0
697 -699 0
-697 699 0
681 -700 0
698 -700 0
-681 -698 700 0
-700 701 0
-682 701 0
700 682 -701 0
77 183 -704 0
-77 183 704 0
77 -183 704 0
-77 -183 -704 0
704 701 -289 0
-704 701 289 0
704 -701 289 0
-704 -701 -289 0
701 -705 0
704 -705 0
-701 -704 705 0
183 -706 0
77 -706 0
-183 -77 706 0
-705 703 0
-706 703 0
705 706 -703 0
78 184 -708 0
-78 184 708 0
78 -184 708 0
-78 -184 -708 0
708 703 -290 0
-708 703 290 0
708 -703 290 0
-708 -703 -290 0
703 -709 0
708 -709 0
-703 -708 709 0
184 -710 0
78 -710 0
-184 -78 710 0
-709 707 0
-710 707 0
709 710 -707 0
79 185 -712 0
-79 185 712 0
79 -185 712 0
-79 -185 -712 0
712 707 -291 0
-712 707 291 0
712 -707 291 0
-712 -707 -291 0
707 -713 0
712 -713 0
-707 -712 713 0
185 -714 0
79 -714 0
-185 -79 714 0
-713 711 0
-714 711 0
713 714 -711 0
80 186 -715 0
-80 186 715 0
80 -186 715 0
-80 -186 -715 0
715 711 -292 0
-715 711 292 0
715 -711 292 0
-715 -711 -292 0
711 -716 0
715 -716 0
-711 -715 716 0
186 -717 0
80 -717 0
-186 -80 717 0
-716 702 0
-717 702 0
716 717 -702 0
704 -718 0
708 -718 0
712 -718 0
715 -718 0
-704 -708 -712 -715 718 0
717 -719 0
-717 719 0
701 -720 0
718 -720 0
-701 -718 720 0
-720 721 0
-702 721 0
720 702 -721 0
81 187 -724 0
-81 187 724 0
81 -187 724 0
-81 -187 -724 0
724 721 -293 0
-724 721 293 0
724 -721 293 0
-724 -721 -293 0
721 -725 0
724 -725 0
-721 -724 725 0
187 -726 0
81 -726 0
-187 -81 726 0
-725 723 0
-726 723 0
725 726 -723 0
82 188 -728 0
-82 188 728 0
82 -188 728 0
-82 -188 -728 0
728 723 -294 0
-728 723 294 0
728 -723 294 0
-728 -723 -294 0
723 -729 0
728 -729 0
-723 -728 729 0
188 -730 0
82 -730 0
-188 -82 730 0
-729 727 0
-730 727 0
729 730 -727 0
83 189 -732 0
-83 189 732 0
83 -189 732 0
-83 -189 -732 0
732 727 -295 0
-732 727 295 0
732 -727 295 0
-732 -727 -295 0
727 -733 0
732 -733 0
-727 -732 733 0
189 -734 0
83 -734 0
-189 -83 734 0
-733 731 0
-734 731 0
733 734 -731 0
84 190 -735 0
-84 190 735 0
84 -190 735 0
-84 -190 -735 0
735 731 -296 0
-735 731 296 0
735 -731 296 0
-735 -731 -296 0
731 -736 0
735 -736 0
-731 -735 736 0
190 -737 0
84 -737 0
-190 -84 737 0
-736 722 0
-737 722 0
736 737 -722 0
724 -738 0
728 -738 0
732 -738 0
735 -738 0
-724 -728 -732 -735 738 0
737 -739 0
-737 739 0
721 -740 0
738 -740 0
-721 -738 740 0
-740 741 0
-722 741 0
740 722 -741 0
85 191 -744 0
-85 191 744 0
85 -191 744 0
-85 -191 -744 0
744 741 -297 0
-744 741 297 0
744 -741 297 0
-744 -741 -297 0
741 -745 0
744 -745 0
-741 -744 745 0
191 -746 0
85 -746 0
-191 -85 746 0
-745 743 0
-746 743 0
745 746 -743 0
86 192 -748 0
-86 192 748 0
86 -192 748 0
-86 -192 -748 0
748 743 -298 0
-748 743 298 0
748 -743 298 0
-748 -743 -298 0
743 -749 0
748 -749 0
-743 -748 749 0
192 -750 0
86 -750 0
-192 -86 750 0
-749 747 0
-750 747 0
749 750 -747 0
87 193 -752 0
-87 193 752 0
87 -193 752 0
-87 -193 -752 0
752 747 -299 0
-752 747 299 0
752 -747 299 0
-752 -747 -299 0
747 -753 0
752 -753 0
-747 -752 753 0
193 -754 0
87 -754 0
-193 -87 754 0
-753 751 0
-754 751 0
753 754 -751 0
88 194 -755 0
-88 194 755 0
88 -194 755 0
-88 -194 -755 0
755 751 -300 0
-755 751 300 0
755 -751 300 0
-755 -751 -300 0
751 -756 0
755 -756 0
-751 -755 756 0
194 -757 0
88 -757 0
-194 -88 757 0
-756 742 0
-757 742 0
756 757 -742 0
744 -758 0
748 -758 0
752 -758 0
755 -758 0
-744 -748 -752 -755 758 0
757 -759 0
-757 759 0
741 -760 0
758 -760 0
-741 -758 760 0
-760 761 0
-742 761 0
760 742 -761 0
89 195 -764 0
-89 195 764 0
89 -195 764 0
-89 -195 -764 0
764 761 -301 0
-764 761 301 0
764 -761 301 0
-764 -761 -301 0
761 -765 0
764 -765 0
-761 -764 765 0
195 -766 0
89 -766 0
-195 -89 766 0
-765 763 0
-766 763 0
765 766 -763 0
90 196 -768 0
-90 196 768 0
90 -196 768 0
-90 -196 -768 0
768 763 -302 0
-768 763 302 0
768 -763 302 0
-768 -763 -302 0
763 -769 0
768 -769 0
-763 -768 769 0
196 -770 0
90 -770 0
-196 -90 770 0
-769 767 0
-770 767 0
769 770 -767 0
91 197 -772 0
-91 197 772 0
91 -197 772 0
-91 -197 -772 0
772 767 -303 0
-772 767 303 0
772 -767 303 0
-772 -767 -303 0
767 -773 0
772 -773 0
-767 -772 773 0
197 -774 0
91 -774 0
-197 -91 774 0
-773 771 0
-774 771 0
773 774 -771 0
92 198 -775 0
-92 198 775 0
92 -198 775 0
-92 -198 -775 0
775 771 -304 0
-775 771 304 0
775 -771 304 0
-775 -771 -304 0
771 -776 0
775 -776 0
-771 -775 776 0
198 -777 0
92 -777 0
-198 -92 777 0
-776 762 0
-777 762 0
776 777 -762 0
764 -778 0
768 -778 0
772 -778 0
775 -778 0
-764 -768 -772 -775 778 0
777 -779 0
-777 779 0
761 -780 0
778 -780 0
-761 -778 780 0
-780 781 0
-762 781 0
780 762 -781 0
93 199 -784 0
-93 199 784 0
93 -199 784 0
-93 -199 -784 0
784 781 -305 0
-784 781 305 0
784 -781 305 0
-784 -781 -305 0
781 -785 0
784 -785 0
-781 -784 785 0
199 -786 0
93 -786 0
-199 -93 786 0
-785 783 0
-786 783 0
785 786 -783 0
94 200 -788 0
-94 200 788 0
94 -200 788 0
-94 -200 -788 0
788 783 -306 0
-788 783 306 0
788 -783 306 0
-788 -783 -306 0
783 -789 0
788 -789 0
-783 -788 789 0
200 -790 0
94 -790 0
-200 -94 790 0
-789 787 0
-790 787 0
789 790 -787 0
95 201 -792 0
-95 201 792 0
95 -201 792 0
-95 -201 -792 0
792 787 -307 0
-792 787 307 0
792 -787 307 0
-792 -787 -307 0
787 -793 0
792 -793 0
-787 -792 793 0
201 -794 0
95 -794 0
-201 -95 794 0
-793 791 0
-794 791 0
793 794 -791 0
96 202 -795 0
-96 202 795 0
96 -202 795 0
-96 -202 -795 0
795 791 -308 0
-795 791 308 0
795 -791 308 0
-795 -791 -308 0
791 -796 0
795 -796 0
-791 -795 796 0
202 -797 0
96 -797 0
-202 -96 797 0
-796 782 0
-797 782 0
796 797 -782 0
784 -798 0
788 -798 0
792 -798 0
795 -798 0
-784 -788 -792 -795 798 0
797 -799 0
-797 799 0
781 -800 0
798 -800 0
-781 -798 800 0
-800 801 0
-782 801 0
800 782 -801 0
97 203 -804 0
-97 203 804 0
97 -203 804 0
-97 -203 -804 0
804 801 -309 0
-804 801 309 0
804 -801 309 0
-804 -801 -309 0
801 -805 0
804 -805 0
-801 -804 805 0
203 -806 0
97 -806 0
-203 -97 806 0
-805 803 0
-806 803 0
805 806 -803 0
98 204 -808 0
-98 204 808 0
98 -204 808 0
-98 -204 -808 0
808 803 -310 0
-808 803 310 0
808 -803 310 0
-808 -803 -310 0
803 -809 0
808 -809 0
-803 -808 809 0
204 -810 0
98 -810 0
-204 -98 810 0
-809 807 0
-810 807 0
809 810 -807 0
99 205 -812 0
-99 205 812 0
99 -205 812 0
-99 -205 -812 0
812 807 -311 0
-812 807 311 0
812 -807 311 0
-812 -807 -311 0
807 -813 0
812 -813 0
-807 -812 813 0
205 -814 0
99 -814 0
-205 -99 814 0
-813 811 0
-814 811 0
813 814 -811 0
100 206 -815 0
-100 206 815 0
100 -206 815 0
-100 -206 -815 0
815 811 -312 0
-815 811 312 0
815 -811 312 0
-815 -811 -312 0
811 -816 0
815 -816 0
-811 -815 816 0
206 -817 0
100 -817 0
-206 -100 817 0
-816 802 0
-817 802 0
816 817 -802 0
804 -818 0
808 -818 0
812 -818 0
815 -818 0
-804 -808 -812 -815 818 0
817 -819 0
-817 819 0
801 -820 0
818 -820 0
-801 -818 820 0
-820 821 0
-802 821 0
820 802 -821 0
101 207 -824 0
-101 207 824 0
101 -207 824 0
-101 -207 -824 0
824 821 -313 0
-824 821 313 0
824 -821 313 0
-824 -821 -313 0
821 -825 0
824 -825 0
-821 -824 825 0
207 -826 0
101 -826 0
-207 -101 826 0
-825 823 0
-826 823 0
825 826 -823 0
102 208 -828 0
-102 208 828 0
102 -208 828 0
-102 -208 -828 0
828 823 -314 0
-828 823 314 0
828 -823 314 0
-828 -823 -314 0
823 -829 0
828 -829 0
-823 -828 829 0
208 -830 0
102 -830 0
-208 -102 830 0
-829 827 0
-830 827 0
829 830 -827 0
103 209 -832 0
-103 209 832 0
103 -209 832 0
-103 -209 -832 0
832 827 -315 0
-832 827 315 0
832 -827 315 0
-832 -827 -315 0
827 -833 0
832 -833 0
-827 -832 833 0
209 -834 0
103 -834 0
-209 -103 834 0
-833 831 0
-834 831 0
833 834 -831 0
104 210 -835 0
-104 210 835 0
104 -210 835 0
-104 -210 -835 0
835 831 -316 0
-835 831 316 0
835 -831 316 0
-835 -831 -316 0
831 -836 0
835 -836 0
-831 -835 836 0
210 -837 0
104 -837 0
-210 -104 837 0
-836 822 0
-837 822 0
836 837 -822 0
824 -838 0
828 -838 0
832 -838 0
835 -838 0
-824 -828 -832 -835 838 0
837 -839 0
-837 839 0
821 -840 0
838 -840 0
-821 -838 840 0
-840 841 0
-822 841 0
840 822 -841 0
105 211 -844 0
-105 211 844 0
105 -211 844 0
-105 -211 -844 0
844 841 -317 0
-844 841 317 0
844 -841 317 0
-844 -841 -317 0
841 -845 0
844 -845 0
-841 -844 845 0
211 -846 0
105 -846 0
-211 -105 846 0
-845 843 0
-846 843 0
845 846 -843 0
106 212 -847 0
-106 212 847 0
106 -212 847 0
-106 -212 -847 0
847 843 -318 0
-847 843 318 0
847 -843 318 0
-847 -843 -318 0
843 -848 0
847 -848 0
-843 -847 848 0
212 -849 0
106 -849 0
-212 -106 849 0
-848 842 0
-849 842 0
848 849 -842 0
844 -850 0
847 -850 0
-844 -847 850 0
849 -851 0
-849 851 0
841 -852 0
850 -852 0
-841 -850 852 0
-852 853 0
-842 853 0
852 842 -853 0
853 -319 0
-853 319 0
